# LJ chains NVT
units		lj
atom_style      bond
special_bonds   fene

boundary        p p p

variable T equal 3.0 #Value of the temperature
variable DT equal 1e-3
variable Tdamp equal 1000*${DT} 
pair_style lj/cut 3.0
bond_style      harmonic

read_data       lj_chains_cubeT${T}_$F.data
reset_timestep 	0

neighbor        0.6 bin
neigh_modify	every 1 delay 1 check yes
comm_modify 	vel yes

bond_coeff      1 37500.0 1.0 

change_box all triclinic

pair_coeff  * * 1.0 1.0 3.0
pair_modify     shift yes

comm_style brick

fix 1 all nve 
fix 2 all langevin ${T} ${T} ${Tdamp} 48279 zero yes

fix fixcentro all recenter INIT INIT INIT #Keep the center of mass in its initial position
fix           fxbal  all balance 1000 1.05 shift x 10 1.05
fix           fxbal  all balance 1000 1.05 shift y 10 1.05
fix           fxbal  all balance 1000 1.05 shift z 10 1.05


#########################################################################################################
########################################   Variables wiggle   ###########################################

variable Ts equal 1e3
variable gamma equal 0.3
variable A equal ly*${gamma}
fix wag all deform 1 xy wiggle ${A} ${Ts} units box flip no
variable T_res equal round(${Ts}/4/${DT}) #Time for result 
variable T_run equal round(${Ts}*20/${DT})  #Time to run 20 periods

variable p_xy equal pxy
variable time equal step*${DT}
variable tilt equal v_A*sin(2*PI*time/v_Ts)
variable dt equal round(${T_run}/10000)

#########################################################################################################
#########################################################################################################


#########################################################################################################
############################################     Results     ############################################

####   Radius of gyration   ####
compute cc1 all chunk/atom molecule
compute radio all gyration/chunk cc1
fix radius all ave/time ${T_res} 1 ${T_res} c_radio[*] file radio$F.out mode vector
#################################

##############  Wiggle  ##############
fix sigma_xy all print ${dt} "${time} ${p_xy} ${tilt} ${gamma} ${Ts}" file sig_xy.gt screen no
######################################

#######   Density profile   #######
#compute densidad all chunk/atom bin/1d z lower 0.5
#fix 3 all ave/chunk 200000 1 200000 densidad density/mass file density.profile
###################################

#########   Trajectory   ##########
dump 1 all custom ${T_res} traj$F.lammpstrj.gz id mol xu yu zu
dump_modify 1 sort id
###################################

################################################################################################################
################################################################################################################

thermo 1000
thermo_style custom step pe ke ebond epair press temp lx ly lz pxx pyy pzz spcpu density
timestep        ${DT}

restart   ${T_res} $F_wiggle.restart1.tmp $F_wiggle.restart2.tmp

#timer timeout 71:30:00 every 50000
run      ${T_run}
