# LJ chains NVT
units		lj
atom_style      bond
special_bonds   fene

boundary        p p p

variable T equal 1.0 #Value of the drift
pair_style lj/cut 3.0
bond_style      harmonic

read_data       lj_chains_cubeT${T}_$F.data
#read_restart       $F.restart2.tmp
reset_timestep 	0

neighbor        0.6 bin
neigh_modify	every 1 delay 1 check yes
comm_modify 	vel yes

bond_coeff      1 37500.0 1.0 

pair_coeff  * * 1.0 1.0 3.0
pair_modify     shift yes

#fix 1 all nve 
fix 2 all nvt temp ${T} ${T} 1.0 
#fix 2 all langevin ${T} ${T} 1.0 48279 zero yes
fix fixcentro all recenter INIT INIT INIT #Keep the center of mass in its initial position

#########################################################################################################
############################################     Results     ############################################

####   Radius of gyration   ####
compute cc1 all chunk/atom molecule
compute radio all gyration/chunk cc1
fix radius all ave/time 100000 1 100000 c_radio[*] file radio$F.out mode vector
#################################

############  G(t)  ############
variable pxy equal sqrt(vol)*pxy
variable pxz equal sqrt(vol)*pxz
variable pyz equal sqrt(vol)*pyz
variable Nxy equal sqrt(vol)*(pxx-pyy)
variable Nxz equal sqrt(vol)*(pxx-pzz)
variable Nyz equal sqrt(vol)*(pyy-pzz)
fix Gxy all ave/correlate/long 1 100000 v_pxy v_pxz v_pyz v_Nxy v_Nxz v_Nyz type auto file Gt$F_T${T}.gt overwrite ncorr 40
################################

#######   Density profile   #######
#compute densidad all chunk/atom bin/1d z lower 0.5
#fix 3 all ave/chunk 200000 1 200000 densidad density/mass file density.profile
###################################

#########   Trajectory   ##########
dump 1 all custom 50000 traj$F.lammpstrj.gz id mol xu yu zu
dump_modify 1 sort id
###################################

################################################################################################################
################################################################################################################

thermo 1000
thermo_style custom step pe ke ebond epair press temp lx ly lz pxx pyy pzz spcpu density
timestep        0.001

restart   100000 $F.restart1.tmp $F.restart2.tmp
run 10000000
